6217 4167 3 4 6 7 9 12 16 20 21 23 25 29 30 33 34 42 43 44 46 50 51 54 56 59 64 66 67 68 70 71 73 74 76 78 84 89 92 95 96 97 98 106 109 115 116 117 118 120 123 124 128 134 135 136 137 141 142 143 145 155 158 159 168 170 171 174 176 181 182 184 185 194 195 196 200 203 206 210 216 218 220 222 223 225 227 229 231 233 236 238 243 246 248 249 260 263 265 268 269 271 272 273 274 276 277 279 280 282 284 293 297 298 300 304 307 308 310 311 312 316 318 322 323 324 326 327 328 329 330 343 346 354 355 358 360 362 364 365 366 368 370 373 377 386 387 388 389 391 392 393 395 396 400 401 403 405 409 410 411 414 415 419 420 422 424 425 426 427 428 429 433 435 437 438 441 442 444 446 447 448 450 451 452 453 461 463 465 466 467 468 470 471 475 477 481 482 485 486 487 488 491 492 497 498 499 